MAXIMIZE
  obj: +1 x1 +1 x2 +1 x3 +1 x4 +1 x5 +1 x6 +1 x7 +1 x8 +1 x9 +1 x10 +1 x11 +1 x12 +1 x13 +1 x14 +1 x15
Subject To
  ie0: -28 x1 -28 x2 +17 x3 -28 x4 +17 x5 +17 x6 -28 x7 -28 x8 +17 x9 +17 x10 -28 x11 +17 x12 -28 x13 -28 x14 +122 x15 >= -13
  ie1: -28 x1 +17 x2 -28 x3 -28 x4 +17 x5 -28 x6 +17 x7 -28 x8 +17 x9 -28 x10 +122 x11 +17 x12 -28 x13 +17 x14 -28 x15 >= -13
  ie2: +17 x1 +122 x2 +17 x3 -28 x4 -28 x5 -28 x6 -28 x7 +17 x8 +17 x9 +17 x10 +17 x11 -28 x12 -28 x13 -28 x14 -28 x15 >= -13
  ie3: -28 x1 -28 x2 +17 x3 +17 x4 -28 x5 -28 x6 +17 x7 -28 x8 +17 x9 +17 x10 -28 x11 -28 x12 +122 x13 +17 x14 -28 x15 >= -13
  ie4: +17 x1 -28 x2 -28 x3 +122 x4 +17 x5 -28 x6 -28 x7 +17 x8 +17 x9 -28 x10 -28 x11 +17 x12 +17 x13 -28 x14 -28 x15 >= -13
  ie5: -28 x1 +17 x2 -28 x3 +17 x4 -28 x5 +17 x6 -28 x7 +122 x8 -28 x9 +17 x10 -28 x11 +17 x12 -28 x13 +17 x14 -28 x15 >= -13
  ie6: +17 x1 -28 x2 -28 x3 -28 x4 -28 x5 +122 x6 +17 x7 +17 x8 +17 x9 -28 x10 -28 x11 -28 x12 -28 x13 +17 x14 +17 x15 >= -13
  ie7: -28 x1 -28 x2 +17 x3 -28 x4 +17 x5 +17 x6 -28 x7 +17 x8 -28 x9 -28 x10 +17 x11 -28 x12 +17 x13 +122 x14 -28 x15 >= -13
  ie8: +17 x1 -28 x2 -28 x3 -28 x4 -28 x5 +17 x6 +122 x7 -28 x8 -28 x9 +17 x10 +17 x11 +17 x12 +17 x13 -28 x14 -28 x15 >= -13
  ie9: -28 x1 +17 x2 -28 x3 -28 x4 +17 x5 -28 x6 +17 x7 +17 x8 -28 x9 +122 x10 -28 x11 -28 x12 +17 x13 -28 x14 +17 x15 >= -13
  ie10: +17 x1 +17 x2 +122 x3 -28 x4 -28 x5 -28 x6 -28 x7 -28 x8 -28 x9 -28 x10 -28 x11 +17 x12 +17 x13 +17 x14 +17 x15 >= -13
  ie11: -28 x1 -28 x2 +17 x3 +17 x4 -28 x5 -28 x6 +17 x7 +17 x8 -28 x9 -28 x10 +17 x11 +122 x12 -28 x13 -28 x14 +17 x15 >= -13
  ie12: +17 x1 -28 x2 -28 x3 +17 x4 +122 x5 -28 x6 -28 x7 -28 x8 -28 x9 +17 x10 +17 x11 -28 x12 -28 x13 +17 x14 +17 x15 >= -13
  ie13: -28 x1 +17 x2 -28 x3 +17 x4 -28 x5 +17 x6 -28 x7 -28 x8 +122 x9 -28 x10 +17 x11 -28 x12 +17 x13 -28 x14 +17 x15 >= -13
  ie14: +122 x1 +17 x2 +17 x3 +17 x4 +17 x5 +17 x6 +17 x7 -28 x8 -28 x9 -28 x10 -28 x11 -28 x12 -28 x13 -28 x14 -28 x15 >= -13
  ie15: +896 x1 +896 x2 -544 x3 +896 x4 -544 x5 -544 x6 +896 x7 +896 x8 -544 x9 -544 x10 +896 x11 -544 x12 +896 x13 +896 x14 -3904 x15 >= -5629
  ie16: +896 x1 -544 x2 +896 x3 +896 x4 -544 x5 +896 x6 -544 x7 +896 x8 -544 x9 +896 x10 -3904 x11 -544 x12 +896 x13 -544 x14 +896 x15 >= -5629
  ie17: -544 x1 -3904 x2 -544 x3 +896 x4 +896 x5 +896 x6 +896 x7 -544 x8 -544 x9 -544 x10 -544 x11 +896 x12 +896 x13 +896 x14 +896 x15 >= -5629
  ie18: +896 x1 +896 x2 -544 x3 -544 x4 +896 x5 +896 x6 -544 x7 +896 x8 -544 x9 -544 x10 +896 x11 +896 x12 -3904 x13 -544 x14 +896 x15 >= -5629
  ie19: -544 x1 +896 x2 +896 x3 -3904 x4 -544 x5 +896 x6 +896 x7 -544 x8 -544 x9 +896 x10 +896 x11 -544 x12 -544 x13 +896 x14 +896 x15 >= -5629
  ie20: +896 x1 -544 x2 +896 x3 -544 x4 +896 x5 -544 x6 +896 x7 -3904 x8 +896 x9 -544 x10 +896 x11 -544 x12 +896 x13 -544 x14 +896 x15 >= -5629
  ie21: -544 x1 +896 x2 +896 x3 +896 x4 +896 x5 -3904 x6 -544 x7 -544 x8 -544 x9 +896 x10 +896 x11 +896 x12 +896 x13 -544 x14 -544 x15 >= -5629
  ie22: +896 x1 +896 x2 -544 x3 +896 x4 -544 x5 -544 x6 +896 x7 -544 x8 +896 x9 +896 x10 -544 x11 +896 x12 -544 x13 -3904 x14 +896 x15 >= -5629
  ie23: -544 x1 +896 x2 +896 x3 +896 x4 +896 x5 -544 x6 -3904 x7 +896 x8 +896 x9 -544 x10 -544 x11 -544 x12 -544 x13 +896 x14 +896 x15 >= -5629
  ie24: +896 x1 -544 x2 +896 x3 +896 x4 -544 x5 +896 x6 -544 x7 -544 x8 +896 x9 -3904 x10 +896 x11 +896 x12 -544 x13 +896 x14 -544 x15 >= -5629
  ie25: -544 x1 -544 x2 -3904 x3 +896 x4 +896 x5 +896 x6 +896 x7 +896 x8 +896 x9 +896 x10 +896 x11 -544 x12 -544 x13 -544 x14 -544 x15 >= -5629
  ie26: +896 x1 +896 x2 -544 x3 -544 x4 +896 x5 +896 x6 -544 x7 -544 x8 +896 x9 +896 x10 -544 x11 -3904 x12 +896 x13 +896 x14 -544 x15 >= -5629
  ie27: -544 x1 +896 x2 +896 x3 -544 x4 -3904 x5 +896 x6 +896 x7 +896 x8 +896 x9 -544 x10 -544 x11 +896 x12 +896 x13 -544 x14 -544 x15 >= -5629
  ie28: +896 x1 -544 x2 +896 x3 -544 x4 +896 x5 -544 x6 +896 x7 +896 x8 -3904 x9 +896 x10 -544 x11 +896 x12 -544 x13 +896 x14 -544 x15 >= -5629
  ie29: -3904 x1 -544 x2 -544 x3 -544 x4 -544 x5 -544 x6 -544 x7 +896 x8 +896 x9 +896 x10 +896 x11 +896 x12 +896 x13 +896 x14 +896 x15 >= -5629
  eq0: -1 x1 -1 x2 -1 x3 -1 x4 -1 x5 -1 x6 -1 x7 -1 x8 -1 x9 -1 x10 -1 x11 -1 x12 -1 x13 -1 x14 -1 x15 = -1
BOUNDS
  x1 free
  x2 free
  x3 free
  x4 free
  x5 free
  x6 free
  x7 free
  x8 free
  x9 free
  x10 free
  x11 free
  x12 free
  x13 free
  x14 free
  x15 free
GENERAL
  x1
  x2
  x3
  x4
  x5
  x6
  x7
  x8
  x9
  x10
  x11
  x12
  x13
  x14
  x15
END
